squfl015-060.py
Ipopt 3.12: 
==> Warning: Treating 15 binary and 0 integer variables as continous.


******************************************************************************
This program contains Ipopt, a library for large-scale nonlinear optimization.
 Ipopt is released as open source code under the Eclipse Public License (EPL).
         For more information visit http://projects.coin-or.org/Ipopt
******************************************************************************

This is Ipopt version 3.12, running with linear solver ma27.

Number of nonzeros in equality constraint Jacobian...:      900
Number of nonzeros in inequality constraint Jacobian.:     1800
Number of nonzeros in Lagrangian Hessian.............:      900

Total number of variables............................:      915
                     variables with only lower bounds:      900
                variables with lower and upper bounds:       15
                     variables with only upper bounds:        0
Total number of equality constraints.................:       60
Total number of inequality constraints...............:      900
        inequality constraints with only lower bounds:        0
   inequality constraints with lower and upper bounds:        0
        inequality constraints with only upper bounds:      900

iter    objective    inf_pr   inf_du lg(mu)  ||d||  lg(rg) alpha_du alpha_pr  ls
   0  1.1736983e+01 8.50e-01 1.99e+00  -1.0 0.00e+00    -  0.00e+00 0.00e+00   0
   1  2.4575602e+02 3.33e-16 6.76e+00  -1.0 1.74e-01    -  1.18e-01 1.00e+00f  1
   2  2.1839760e+02 4.44e-16 6.67e-01  -1.0 1.43e-01    -  8.61e-01 8.95e-01f  1
   3  1.8379888e+02 4.44e-16 3.37e-01  -1.7 1.53e-01    -  7.34e-01 6.36e-01f  1
   4  1.6764069e+02 3.33e-16 4.09e-01  -1.7 3.00e-01    -  5.65e-01 9.69e-01f  1
   5  1.6772972e+02 4.44e-16 2.00e-07  -1.7 2.87e-01    -  1.00e+00 1.00e+00f  1
   6  1.5744109e+02 3.33e-16 4.09e-01  -2.5 3.23e-01    -  2.40e-01 7.81e-01f  1
   7  1.5530471e+02 2.22e-16 1.99e-01  -2.5 5.66e-01    -  1.00e+00 6.96e-01f  1
   8  1.5435672e+02 3.33e-16 2.83e-08  -2.5 1.49e-01    -  1.00e+00 1.00e+00f  1
   9  1.5400038e+02 3.33e-16 3.07e-01  -3.8 8.39e-02    -  9.80e-01 1.87e-01f  1
iter    objective    inf_pr   inf_du lg(mu)  ||d||  lg(rg) alpha_du alpha_pr  ls
  10  1.5305230e+02 2.22e-16 1.48e-01  -3.8 3.35e-02    -  1.00e+00 6.43e-01f  1
  11  1.5259129e+02 3.33e-16 1.28e-02  -3.8 1.29e-02    -  1.00e+00 9.34e-01f  1
  12  1.5255981e+02 4.44e-16 1.50e-09  -3.8 2.12e-03    -  1.00e+00 1.00e+00f  1
  13  1.5247897e+02 2.22e-16 7.10e-03  -5.7 3.69e-03    -  9.97e-01 8.87e-01f  1
  14  1.5246827e+02 4.44e-16 1.85e-11  -5.7 8.06e-04    -  1.00e+00 1.00e+00f  1
  15  1.5246707e+02 3.33e-16 2.35e-04  -8.6 3.51e-04    -  9.88e-01 9.73e-01f  1
  16  1.5246702e+02 4.44e-16 4.69e-05  -8.6 1.54e-04    -  1.00e+00 9.95e-01f  1
  17  1.5246702e+02 4.44e-16 2.67e-14  -8.6 4.69e-05    -  1.00e+00 1.00e+00f  1
  18  1.5246702e+02 3.33e-16 6.48e-14  -8.6 1.96e-05    -  1.00e+00 1.00e+00h  1
  19  1.5246702e+02 4.44e-16 5.34e-14  -8.6 7.74e-06    -  1.00e+00 1.00e+00h  1

Number of Iterations....: 19

                                   (scaled)                 (unscaled)
Objective...............:   1.5246702011524656e+02    1.5246702011524656e+02
Dual infeasibility......:   5.3361115246561461e-14    5.3361115246561461e-14
Constraint violation....:   4.4408920985006262e-16    4.4408920985006262e-16
Complementarity.........:   9.0308776578286588e-09    9.0308776578286588e-09
Overall NLP error.......:   9.0308776578286588e-09    9.0308776578286588e-09


Number of objective function evaluations             = 20
Number of objective gradient evaluations             = 20
Number of equality constraint evaluations            = 20
Number of inequality constraint evaluations          = 20
Number of equality constraint Jacobian evaluations   = 20
Number of inequality constraint Jacobian evaluations = 20
Number of Lagrangian Hessian evaluations             = 19
Total CPU secs in IPOPT (w/o function evaluations)   =      0.025
Total CPU secs in NLP function evaluations           =      0.003

EXIT: Optimal Solution Found.

Time elapsed: 0.1929175853729248